Minimize
    r
Subject to
 demand_flow: 
 x_111 + x_121 + x_131 + x_141 + x_151 = 3
 x_112 + x_122 + x_132 + x_142 + x_152 = 4
 x_113 + x_123 + x_133 + x_143 + x_153 = 5
 x_114 + x_124 + x_134 + x_144 + x_154 = 6
 x_115 + x_125 + x_135 + x_145 + x_155 = 7
 x_116 + x_126 + x_136 + x_146 + x_156 = 8
 x_117 + x_127 + x_137 + x_147 + x_157 = 9
 x_211 + x_221 + x_231 + x_241 + x_251 = 5
 x_212 + x_222 + x_232 + x_242 + x_252 = 6
 x_213 + x_223 + x_233 + x_243 + x_253 = 7
 x_214 + x_224 + x_234 + x_244 + x_254 = 8
 x_215 + x_225 + x_235 + x_245 + x_255 = 9
 x_216 + x_226 + x_236 + x_246 + x_256 = 10
 x_217 + x_227 + x_237 + x_247 + x_257 = 11
 x_311 + x_321 + x_331 + x_341 + x_351 = 7
 x_312 + x_322 + x_332 + x_342 + x_352 = 8
 x_313 + x_323 + x_333 + x_343 + x_353 = 9
 x_314 + x_324 + x_334 + x_344 + x_354 = 10
 x_315 + x_325 + x_335 + x_345 + x_355 = 11
 x_316 + x_326 + x_336 + x_346 + x_356 = 12
 x_317 + x_327 + x_337 + x_347 + x_357 = 13
capacity_st: 
 x_111 + x_112 + x_113 + x_114 + x_115 + x_116 + x_117 - c_11 <= 0
 x_121 + x_122 + x_123 + x_124 + x_125 + x_126 + x_127 - c_12 <= 0
 x_131 + x_132 + x_133 + x_134 + x_135 + x_136 + x_137 - c_13 <= 0
 x_141 + x_142 + x_143 + x_144 + x_145 + x_146 + x_147 - c_14 <= 0
 x_151 + x_152 + x_153 + x_154 + x_155 + x_156 + x_157 - c_15 <= 0
 x_211 + x_212 + x_213 + x_214 + x_215 + x_216 + x_217 - c_21 <= 0
 x_221 + x_222 + x_223 + x_224 + x_225 + x_226 + x_227 - c_22 <= 0
 x_231 + x_232 + x_233 + x_234 + x_235 + x_236 + x_237 - c_23 <= 0
 x_241 + x_242 + x_243 + x_244 + x_245 + x_246 + x_247 - c_24 <= 0
 x_251 + x_252 + x_253 + x_254 + x_255 + x_256 + x_257 - c_25 <= 0
 x_311 + x_312 + x_313 + x_314 + x_315 + x_316 + x_317 - c_31 <= 0
 x_321 + x_322 + x_323 + x_324 + x_325 + x_326 + x_327 - c_32 <= 0
 x_331 + x_332 + x_333 + x_334 + x_335 + x_336 + x_337 - c_33 <= 0
 x_341 + x_342 + x_343 + x_344 + x_345 + x_346 + x_347 - c_34 <= 0
 x_351 + x_352 + x_353 + x_354 + x_355 + x_356 + x_357 - c_35 <= 0
capacity_td: 
 x_111 + x_211 + x_311 - d_11 <= 0
 x_121 + x_221 + x_321 - d_21 <= 0
 x_131 + x_231 + x_331 - d_31 <= 0
 x_141 + x_241 + x_341 - d_41 <= 0
 x_151 + x_251 + x_351 - d_51 <= 0
 x_112 + x_212 + x_312 - d_12 <= 0
 x_122 + x_222 + x_322 - d_22 <= 0
 x_132 + x_232 + x_332 - d_32 <= 0
 x_142 + x_242 + x_342 - d_42 <= 0
 x_152 + x_252 + x_352 - d_52 <= 0
 x_113 + x_213 + x_313 - d_13 <= 0
 x_123 + x_223 + x_323 - d_23 <= 0
 x_133 + x_233 + x_333 - d_33 <= 0
 x_143 + x_243 + x_343 - d_43 <= 0
 x_153 + x_253 + x_353 - d_53 <= 0
 x_114 + x_214 + x_314 - d_14 <= 0
 x_124 + x_224 + x_324 - d_24 <= 0
 x_134 + x_234 + x_334 - d_34 <= 0
 x_144 + x_244 + x_344 - d_44 <= 0
 x_154 + x_254 + x_354 - d_54 <= 0
 x_115 + x_215 + x_315 - d_15 <= 0
 x_125 + x_225 + x_325 - d_25 <= 0
 x_135 + x_235 + x_335 - d_35 <= 0
 x_145 + x_245 + x_345 - d_45 <= 0
 x_155 + x_255 + x_355 - d_55 <= 0
 x_116 + x_216 + x_316 - d_16 <= 0
 x_126 + x_226 + x_326 - d_26 <= 0
 x_136 + x_236 + x_336 - d_36 <= 0
 x_146 + x_246 + x_346 - d_46 <= 0
 x_156 + x_256 + x_356 - d_56 <= 0
 x_117 + x_217 + x_317 - d_17 <= 0
 x_127 + x_227 + x_327 - d_27 <= 0
 x_137 + x_237 + x_337 - d_37 <= 0
 x_147 + x_247 + x_347 - d_47 <= 0
 x_157 + x_257 + x_357 - d_57 <= 0
split_paths: 
 u_111 + u_121 + u_131 + u_141 + u_151 = 2
 u_112 + u_122 + u_132 + u_142 + u_152 = 2
 u_113 + u_123 + u_133 + u_143 + u_153 = 2
 u_114 + u_124 + u_134 + u_144 + u_154 = 2
 u_115 + u_125 + u_135 + u_145 + u_155 = 2
 u_116 + u_126 + u_136 + u_146 + u_156 = 2
 u_117 + u_127 + u_137 + u_147 + u_157 = 2
 u_211 + u_221 + u_231 + u_241 + u_251 = 2
 u_212 + u_222 + u_232 + u_242 + u_252 = 2
 u_213 + u_223 + u_233 + u_243 + u_253 = 2
 u_214 + u_224 + u_234 + u_244 + u_254 = 2
 u_215 + u_225 + u_235 + u_245 + u_255 = 2
 u_216 + u_226 + u_236 + u_246 + u_256 = 2
 u_217 + u_227 + u_237 + u_247 + u_257 = 2
 u_311 + u_321 + u_331 + u_341 + u_351 = 2
 u_312 + u_322 + u_332 + u_342 + u_352 = 2
 u_313 + u_323 + u_333 + u_343 + u_353 = 2
 u_314 + u_324 + u_334 + u_344 + u_354 = 2
 u_315 + u_325 + u_335 + u_345 + u_355 = 2
 u_316 + u_326 + u_336 + u_346 + u_356 = 2
 u_317 + u_327 + u_337 + u_347 + u_357 = 2
equal_split_flow: 
 2 x_111 - 3 u_111 = 0
 2 x_112 - 4 u_112 = 0
 2 x_113 - 5 u_113 = 0
 2 x_114 - 6 u_114 = 0
 2 x_115 - 7 u_115 = 0
 2 x_116 - 8 u_116 = 0
 2 x_117 - 9 u_117 = 0
 2 x_121 - 3 u_121 = 0
 2 x_122 - 4 u_122 = 0
 2 x_123 - 5 u_123 = 0
 2 x_124 - 6 u_124 = 0
 2 x_125 - 7 u_125 = 0
 2 x_126 - 8 u_126 = 0
 2 x_127 - 9 u_127 = 0
 2 x_131 - 3 u_131 = 0
 2 x_132 - 4 u_132 = 0
 2 x_133 - 5 u_133 = 0
 2 x_134 - 6 u_134 = 0
 2 x_135 - 7 u_135 = 0
 2 x_136 - 8 u_136 = 0
 2 x_137 - 9 u_137 = 0
 2 x_141 - 3 u_141 = 0
 2 x_142 - 4 u_142 = 0
 2 x_143 - 5 u_143 = 0
 2 x_144 - 6 u_144 = 0
 2 x_145 - 7 u_145 = 0
 2 x_146 - 8 u_146 = 0
 2 x_147 - 9 u_147 = 0
 2 x_151 - 3 u_151 = 0
 2 x_152 - 4 u_152 = 0
 2 x_153 - 5 u_153 = 0
 2 x_154 - 6 u_154 = 0
 2 x_155 - 7 u_155 = 0
 2 x_156 - 8 u_156 = 0
 2 x_157 - 9 u_157 = 0
 2 x_211 - 5 u_211 = 0
 2 x_212 - 6 u_212 = 0
 2 x_213 - 7 u_213 = 0
 2 x_214 - 8 u_214 = 0
 2 x_215 - 9 u_215 = 0
 2 x_216 - 10 u_216 = 0
 2 x_217 - 11 u_217 = 0
 2 x_221 - 5 u_221 = 0
 2 x_222 - 6 u_222 = 0
 2 x_223 - 7 u_223 = 0
 2 x_224 - 8 u_224 = 0
 2 x_225 - 9 u_225 = 0
 2 x_226 - 10 u_226 = 0
 2 x_227 - 11 u_227 = 0
 2 x_231 - 5 u_231 = 0
 2 x_232 - 6 u_232 = 0
 2 x_233 - 7 u_233 = 0
 2 x_234 - 8 u_234 = 0
 2 x_235 - 9 u_235 = 0
 2 x_236 - 10 u_236 = 0
 2 x_237 - 11 u_237 = 0
 2 x_241 - 5 u_241 = 0
 2 x_242 - 6 u_242 = 0
 2 x_243 - 7 u_243 = 0
 2 x_244 - 8 u_244 = 0
 2 x_245 - 9 u_245 = 0
 2 x_246 - 10 u_246 = 0
 2 x_247 - 11 u_247 = 0
 2 x_251 - 5 u_251 = 0
 2 x_252 - 6 u_252 = 0
 2 x_253 - 7 u_253 = 0
 2 x_254 - 8 u_254 = 0
 2 x_255 - 9 u_255 = 0
 2 x_256 - 10 u_256 = 0
 2 x_257 - 11 u_257 = 0
 2 x_311 - 7 u_311 = 0
 2 x_312 - 8 u_312 = 0
 2 x_313 - 9 u_313 = 0
 2 x_314 - 10 u_314 = 0
 2 x_315 - 11 u_315 = 0
 2 x_316 - 12 u_316 = 0
 2 x_317 - 13 u_317 = 0
 2 x_321 - 7 u_321 = 0
 2 x_322 - 8 u_322 = 0
 2 x_323 - 9 u_323 = 0
 2 x_324 - 10 u_324 = 0
 2 x_325 - 11 u_325 = 0
 2 x_326 - 12 u_326 = 0
 2 x_327 - 13 u_327 = 0
 2 x_331 - 7 u_331 = 0
 2 x_332 - 8 u_332 = 0
 2 x_333 - 9 u_333 = 0
 2 x_334 - 10 u_334 = 0
 2 x_335 - 11 u_335 = 0
 2 x_336 - 12 u_336 = 0
 2 x_337 - 13 u_337 = 0
 2 x_341 - 7 u_341 = 0
 2 x_342 - 8 u_342 = 0
 2 x_343 - 9 u_343 = 0
 2 x_344 - 10 u_344 = 0
 2 x_345 - 11 u_345 = 0
 2 x_346 - 12 u_346 = 0
 2 x_347 - 13 u_347 = 0
 2 x_351 - 7 u_351 = 0
 2 x_352 - 8 u_352 = 0
 2 x_353 - 9 u_353 = 0
 2 x_354 - 10 u_354 = 0
 2 x_355 - 11 u_355 = 0
 2 x_356 - 12 u_356 = 0
 2 x_357 - 13 u_357 = 0
transit_node_balance_load: 
 x_111 + x_112 + x_113 + x_114 + x_115 + x_116 + x_117 + x_211 + x_212 + x_213 + x_214 + x_215 + x_216 + x_217 + x_311 + x_312 + x_313 + x_314 + x_315 + x_316 + x_317 -r <= 0
 x_121 + x_122 + x_123 + x_124 + x_125 + x_126 + x_127 + x_221 + x_222 + x_223 + x_224 + x_225 + x_226 + x_227 + x_321 + x_322 + x_323 + x_324 + x_325 + x_326 + x_327 -r <= 0
 x_131 + x_132 + x_133 + x_134 + x_135 + x_136 + x_137 + x_231 + x_232 + x_233 + x_234 + x_235 + x_236 + x_237 + x_331 + x_332 + x_333 + x_334 + x_335 + x_336 + x_337 -r <= 0
 x_141 + x_142 + x_143 + x_144 + x_145 + x_146 + x_147 + x_241 + x_242 + x_243 + x_244 + x_245 + x_246 + x_247 + x_341 + x_342 + x_343 + x_344 + x_345 + x_346 + x_347 -r <= 0
 x_151 + x_152 + x_153 + x_154 + x_155 + x_156 + x_157 + x_251 + x_252 + x_253 + x_254 + x_255 + x_256 + x_257 + x_351 + x_352 + x_353 + x_354 + x_355 + x_356 + x_357 -r <= 0
Bounds
 0 <= x_111
 0 <= x_112
 0 <= x_113
 0 <= x_114
 0 <= x_115
 0 <= x_116
 0 <= x_117
 0 <= x_121
 0 <= x_122
 0 <= x_123
 0 <= x_124
 0 <= x_125
 0 <= x_126
 0 <= x_127
 0 <= x_131
 0 <= x_132
 0 <= x_133
 0 <= x_134
 0 <= x_135
 0 <= x_136
 0 <= x_137
 0 <= x_141
 0 <= x_142
 0 <= x_143
 0 <= x_144
 0 <= x_145
 0 <= x_146
 0 <= x_147
 0 <= x_151
 0 <= x_152
 0 <= x_153
 0 <= x_154
 0 <= x_155
 0 <= x_156
 0 <= x_157
 0 <= x_211
 0 <= x_212
 0 <= x_213
 0 <= x_214
 0 <= x_215
 0 <= x_216
 0 <= x_217
 0 <= x_221
 0 <= x_222
 0 <= x_223
 0 <= x_224
 0 <= x_225
 0 <= x_226
 0 <= x_227
 0 <= x_231
 0 <= x_232
 0 <= x_233
 0 <= x_234
 0 <= x_235
 0 <= x_236
 0 <= x_237
 0 <= x_241
 0 <= x_242
 0 <= x_243
 0 <= x_244
 0 <= x_245
 0 <= x_246
 0 <= x_247
 0 <= x_251
 0 <= x_252
 0 <= x_253
 0 <= x_254
 0 <= x_255
 0 <= x_256
 0 <= x_257
 0 <= x_311
 0 <= x_312
 0 <= x_313
 0 <= x_314
 0 <= x_315
 0 <= x_316
 0 <= x_317
 0 <= x_321
 0 <= x_322
 0 <= x_323
 0 <= x_324
 0 <= x_325
 0 <= x_326
 0 <= x_327
 0 <= x_331
 0 <= x_332
 0 <= x_333
 0 <= x_334
 0 <= x_335
 0 <= x_336
 0 <= x_337
 0 <= x_341
 0 <= x_342
 0 <= x_343
 0 <= x_344
 0 <= x_345
 0 <= x_346
 0 <= x_347
 0 <= x_351
 0 <= x_352
 0 <= x_353
 0 <= x_354
 0 <= x_355
 0 <= x_356
 0 <= x_357
 0 <= r
Binary
 u_111
 u_112
 u_113
 u_114
 u_115
 u_116
 u_117
 u_121
 u_122
 u_123
 u_124
 u_125
 u_126
 u_127
 u_131
 u_132
 u_133
 u_134
 u_135
 u_136
 u_137
 u_141
 u_142
 u_143
 u_144
 u_145
 u_146
 u_147
 u_151
 u_152
 u_153
 u_154
 u_155
 u_156
 u_157
 u_211
 u_212
 u_213
 u_214
 u_215
 u_216
 u_217
 u_221
 u_222
 u_223
 u_224
 u_225
 u_226
 u_227
 u_231
 u_232
 u_233
 u_234
 u_235
 u_236
 u_237
 u_241
 u_242
 u_243
 u_244
 u_245
 u_246
 u_247
 u_251
 u_252
 u_253
 u_254
 u_255
 u_256
 u_257
 u_311
 u_312
 u_313
 u_314
 u_315
 u_316
 u_317
 u_321
 u_322
 u_323
 u_324
 u_325
 u_326
 u_327
 u_331
 u_332
 u_333
 u_334
 u_335
 u_336
 u_337
 u_341
 u_342
 u_343
 u_344
 u_345
 u_346
 u_347
 u_351
 u_352
 u_353
 u_354
 u_355
 u_356
 u_357
End